
  22    4
  10   10   10   10

   0   0   0   0   0   6 2 3 4 5 6 13 
   2  10  10  10  10   6 21 20 12 10 9 8 
  10  10  10  10  10   3 20 18 7 
   4  10  10  10  10   3 17 9 8 
   4  10  10  10  10   4 19 17 16 9 
   3  10  10  10  10   1 8 
   2  10  10  10  10   5 19 17 16 15 14 
   3  10  10  10  10   4 16 15 14 11 
  10  10  10  10  10   2 15 14 
   8  10  10  10  10   2 15 14 
   3  10  10  10  10   1 18 
   5  10  10  10  10   1 17 
   1  10  10  10  10   1 16 
   9  10  10  10  10   1 22
   6  10  10  10  10   1 22
   7  10  10  10  10   1 22
   5  10  10  10  10   1 22
   8  10  10  10  10   1 22
  10  10  10  10  10   1 22
   8  10  10  10  10   1 22
  10  10  10  10  10   1 22
   0   0   0   0   0   0 
